(set-logic HORN)
(declare-fun assert_171_24_1_abs01 (Int Int Int Int Int Int Int) Bool)
(declare-fun assign_147_23_1_abs01 (Int Int Int Int Int Int Int) Bool)
(declare-fun assign_126_20_5_abs01 (Int Int Int Int Int Int Int) Bool)
(declare-fun arrayassign_117_19_5_abs01 (Int Int Int Int Int Int Int) Bool)
(declare-fun while_129_18_1_abs01 (Int Int Int Int Int Int Int) Bool)
(declare-fun assign_89_17_1_abs01 (Int Int Int Int Int Int Int) Bool)
(declare-fun assign_80_14_5_abs01 (Int Int Int Int Int Int Int) Bool)
(declare-fun arrayassign_71_13_5_abs01 (Int Int Int Int Int Int Int) Bool)
(declare-fun while_83_12_1_abs01 (Int Int Int Int Int Int Int) Bool)
(declare-fun assign_49_10_1_abs01 (Int Int Int Int Int Int Int) Bool)
(declare-fun assign_37_9_1_abs01 (Int Int Int Int Int Int Int) Bool)
(declare-fun end_abs01 (Int Int Int Int Int Int Int) Bool)
(declare-fun start_abs01 (Int Int Int Int Int Int Int) Bool)
(assert (forall ((size Int) (k Int) (i Int) (vabs_f_f Int) (vabs_s_f_f Int) (a_copy_select Int) (a_select Int)) (start_abs01 vabs_f_f a_copy_select vabs_s_f_f a_select size k i)))
(assert (forall ((i Int) (k Int) (size Int) (vabs_0_f_f Int) (vabs_0_s_f_f Int) (a_select Int) (a_copy_select Int)) (=> (start_abs01 vabs_0_f_f a_copy_select vabs_0_s_f_f a_select size k i) (assign_37_9_1_abs01 vabs_0_f_f a_copy_select vabs_0_s_f_f a_select size k i))))
(assert (forall ((i Int) (k Int) (size Int) (vabs_0_f_f Int) (vabs_0_s_f_f Int) (a_select Int) (a_copy_select Int)) (=> (assign_37_9_1_abs01 vabs_0_f_f a_copy_select vabs_0_s_f_f a_select size k i) (assign_49_10_1_abs01 vabs_0_f_f a_copy_select vabs_0_s_f_f a_select size k 0))))
(assert (forall ((rnd Int) (i Int) (k Int) (size Int) (vabs_0_f_f Int) (vabs_0_s_f_f Int) (a_select Int) (a_copy_select Int)) (=> (assign_49_10_1_abs01 vabs_0_f_f a_copy_select vabs_0_s_f_f a_select size k i) (while_83_12_1_abs01 vabs_0_f_f a_copy_select vabs_0_s_f_f a_select rnd k i))))
(assert (forall ((size Int) (k Int) (i Int) (vabs_0_f_f Int) (vabs_0_s_f_f Int) (a_copy_select Int) (a_select Int)) (=> (and (while_83_12_1_abs01 vabs_0_f_f a_copy_select vabs_0_s_f_f a_select size k i) (< i size)) (arrayassign_71_13_5_abs01 vabs_0_f_f a_copy_select vabs_0_s_f_f a_select size k i))))
(assert (forall ((size Int) (k Int) (i Int) (vabs_0_f_f Int) (vabs_0_s_f_f Int) (a_copy_select Int) (a_select Int)) (=> (and (while_83_12_1_abs01 vabs_0_f_f a_copy_select vabs_0_s_f_f a_select size k i) (not (< i size))) (assign_89_17_1_abs01 vabs_0_f_f a_copy_select vabs_0_s_f_f a_select size k i))))
(assert (forall ((i Int) (k Int) (size Int) (vabs_0_f_f Int) (vabs_0_s_f_f Int) (a_select_0 Int) (a_select Int) (a_copy_select Int)) (=> (and (=> (= i vabs_0_s_f_f) (= a_select a_select_0)) (arrayassign_71_13_5_abs01 vabs_0_f_f a_copy_select vabs_0_s_f_f a_select size k i) (arrayassign_71_13_5_abs01 vabs_0_f_f a_copy_select i a_select_0 size k i)) (assign_80_14_5_abs01 vabs_0_f_f (ite (= i vabs_0_f_f) a_select_0 a_copy_select) vabs_0_s_f_f a_select size k i))))
(assert (forall ((i Int) (k Int) (size Int) (vabs_0_f_f Int) (vabs_0_s_f_f Int) (a_select Int) (a_copy_select Int)) (=> (assign_80_14_5_abs01 vabs_0_f_f a_copy_select vabs_0_s_f_f a_select size k i) (while_83_12_1_abs01 vabs_0_f_f a_copy_select vabs_0_s_f_f a_select size k (+ i 1)))))
(assert (forall ((i Int) (k Int) (size Int) (vabs_0_f_f Int) (vabs_0_s_f_f Int) (a_select Int) (a_copy_select Int)) (=> (assign_89_17_1_abs01 vabs_0_f_f a_copy_select vabs_0_s_f_f a_select size k i) (while_129_18_1_abs01 vabs_0_f_f a_copy_select vabs_0_s_f_f a_select size k 0))))
(assert (forall ((size Int) (k Int) (i Int) (vabs_0_f_f Int) (vabs_0_s_f_f Int) (a_copy_select Int) (a_select Int)) (=> (and (while_129_18_1_abs01 vabs_0_f_f a_copy_select vabs_0_s_f_f a_select size k i) (< i size)) (arrayassign_117_19_5_abs01 vabs_0_f_f a_copy_select vabs_0_s_f_f a_select size k i))))
(assert (forall ((size Int) (k Int) (i Int) (vabs_0_f_f Int) (vabs_0_s_f_f Int) (a_copy_select Int) (a_select Int)) (=> (and (while_129_18_1_abs01 vabs_0_f_f a_copy_select vabs_0_s_f_f a_select size k i) (not (< i size))) (assign_147_23_1_abs01 vabs_0_f_f a_copy_select vabs_0_s_f_f a_select size k i))))
(assert (forall ((i Int) (k Int) (size Int) (vabs_0_f_f Int) (vabs_0_s_f_f Int) (a_select Int) (a_copy_select_0 Int) (a_copy_select Int)) (=> (and (=> (= vabs_0_f_f (- (- size i) 1)) (= a_copy_select a_copy_select_0)) (arrayassign_117_19_5_abs01 (- (- size i) 1) a_copy_select vabs_0_s_f_f a_select size k i) (arrayassign_117_19_5_abs01 vabs_0_f_f a_copy_select_0 vabs_0_s_f_f a_select size k i)) (assign_126_20_5_abs01 vabs_0_f_f a_copy_select_0 vabs_0_s_f_f (ite (= i vabs_0_s_f_f) a_copy_select a_select) size k i))))
(assert (forall ((i Int) (k Int) (size Int) (vabs_0_f_f Int) (vabs_0_s_f_f Int) (a_select Int) (a_copy_select Int)) (=> (assign_126_20_5_abs01 vabs_0_f_f a_copy_select vabs_0_s_f_f a_select size k i) (while_129_18_1_abs01 vabs_0_f_f a_copy_select vabs_0_s_f_f a_select size k (+ i 1)))))
(assert (forall ((rnd Int) (size Int) (k Int) (i Int) (vabs_0_f_f Int) (vabs_0_s_f_f Int) (a_copy_select Int) (a_select Int)) (=> (and (assign_147_23_1_abs01 vabs_0_f_f a_copy_select vabs_0_s_f_f a_select size k i) (>= rnd 0) (< rnd (+ size 1))) (assert_171_24_1_abs01 vabs_0_f_f a_copy_select vabs_0_s_f_f a_select size rnd i))))
(assert (forall ((i Int) (k Int) (size Int) (a_select Int) (a_copy_select Int)) (=> (assert_171_24_1_abs01 (- (- size 1) k) a_copy_select k a_select size k i) (= a_copy_select a_select))))
(assert (forall ((i Int) (k Int) (size Int) (vabs_0_f_f Int) (vabs_0_s_f_f Int) (a_select Int) (a_copy_select Int)) (=> (assert_171_24_1_abs01 vabs_0_f_f a_copy_select vabs_0_s_f_f a_select size k i) (end_abs01 vabs_0_f_f a_copy_select vabs_0_s_f_f a_select size k i))))
(check-sat)